GLPSOL--GLPK LP/MIP Solver 5.0
Parameter(s) specified in the command line:
 --lp ./Instances/small/optimizedinstance52.lp -o ./Instances/small/solutions/optimizedinstance52.out
 --log ./Instances/small/solutions/optimizedinstance52.glplog
Reading problem data from './Instances/small/optimizedinstance52.lp'...
373 rows, 375 columns, 33848 non-zeros
375 integer variables, all of which are binary
753 lines were read
GLPK Integer Optimizer 5.0
373 rows, 375 columns, 33848 non-zeros
375 integer variables, all of which are binary
Preprocessing...
373 rows, 375 columns, 33848 non-zeros
375 integer variables, all of which are binary
Scaling...
 A: min|aij| =  1.000e+00  max|aij| =  2.220e+02  ratio =  2.220e+02
GM: min|aij| =  6.814e-02  max|aij| =  1.468e+01  ratio =  2.154e+02
EQ: min|aij| =  4.671e-03  max|aij| =  1.000e+00  ratio =  2.141e+02
2N: min|aij| =  3.906e-03  max|aij| =  1.562e+00  ratio =  4.000e+02
Constructing initial basis...
Size of triangular part is 373
Solving LP relaxation...
GLPK Simplex Optimizer 5.0
373 rows, 375 columns, 33848 non-zeros
*     0: obj =  -0.000000000e+00 inf =   0.000e+00 (375)
*   326: obj =   2.281690956e+03 inf =   0.000e+00 (0) 2
OPTIMAL LP SOLUTION FOUND
Integer optimization begins...
Long-step dual simplex will be used
+   326: mip =     not found yet <=              +inf        (1; 0)
+   774: mip =     not found yet <=   2.223000000e+03        (103; 0)
+   783: >>>>>   8.900000000e+01 <=   2.223000000e+03        (111; 0)
+  1424: mip =   8.900000000e+01 <=   2.216000000e+03        (190; 6)
+  1774: mip =   8.900000000e+01 <=   2.216000000e+03        (286; 7)
+  2241: mip =   8.900000000e+01 <=   2.211000000e+03        (381; 8)
+  2796: mip =   8.900000000e+01 <=   2.185000000e+03        (473; 10)
+  3027: >>>>>   9.500000000e+01 <=   2.185000000e+03        (546; 10)
+  3324: mip =   9.500000000e+01 <=   2.185000000e+03        (640; 17)
+  3637: mip =   9.500000000e+01 <=   2.182000000e+03        (738; 18)
+  3778: mip =   9.500000000e+01 <=   2.182000000e+03        (812; 18)
+  4228: mip =   9.500000000e+01 <=   2.180000000e+03        (899; 19)
+  4605: mip =   9.500000000e+01 <=   2.174000000e+03        (1001; 20)
+  5176: mip =   9.500000000e+01 <=   2.171000000e+03        (1089; 22)
Time used: 60.1 secs.  Memory used: 6.2 Mb.
+  5594: mip =   9.500000000e+01 <=   2.169000000e+03        (1177; 23)
+  5922: mip =   9.500000000e+01 <=   2.164000000e+03        (1275; 24)
+  6467: mip =   9.500000000e+01 <=   2.161000000e+03        (1373; 25)
+  6820: mip =   9.500000000e+01 <=   2.160000000e+03        (1470; 26)
+  7480: mip =   9.500000000e+01 <=   2.150000000e+03        (1580; 28)
+  7772: mip =   9.500000000e+01 <=   2.147000000e+03        (1668; 29)
+  8396: mip =   9.500000000e+01 <=   2.141000000e+03        (1770; 31)
+  8727: mip =   9.500000000e+01 <=   2.135000000e+03        (1879; 32)
+  9275: mip =   9.500000000e+01 <=   2.133000000e+03        (1980; 33)
+  9655: mip =   9.500000000e+01 <=   2.124000000e+03        (2087; 34)
+ 10222: mip =   9.500000000e+01 <=   2.114000000e+03        (2177; 36)
+ 10317: mip =   9.500000000e+01 <=   2.114000000e+03        (2238; 36)
Time used: 120.1 secs.  Memory used: 7.0 Mb.
+ 10658: mip =   9.500000000e+01 <=   2.107000000e+03        (2324; 37)
+ 10999: mip =   9.500000000e+01 <=   2.106000000e+03        (2425; 38)
+ 11579: mip =   9.500000000e+01 <=   2.104000000e+03        (2527; 40)
+ 12038: mip =   9.500000000e+01 <=   2.102000000e+03        (2641; 41)
+ 12604: mip =   9.500000000e+01 <=   2.098000000e+03        (2740; 43)
+ 13354: mip =   9.500000000e+01 <=   2.097000000e+03        (2891; 45)
+ 13907: mip =   9.500000000e+01 <=   2.095000000e+03        (3012; 46)
+ 14506: mip =   9.500000000e+01 <=   2.084000000e+03        (3115; 48)
+ 14930: mip =   9.500000000e+01 <=   2.084000000e+03        (3211; 49)
+ 15196: mip =   9.500000000e+01 <=   2.083000000e+03        (3292; 50)
+ 15552: mip =   9.500000000e+01 <=   2.074000000e+03        (3380; 51)
+ 15890: mip =   9.500000000e+01 <=   2.064000000e+03        (3467; 52)
Time used: 180.1 secs.  Memory used: 8.0 Mb.
+ 16302: mip =   9.500000000e+01 <=   2.063000000e+03        (3562; 53)
+ 16588: mip =   9.500000000e+01 <=   2.061000000e+03        (3658; 54)
+ 16992: mip =   9.500000000e+01 <=   2.060000000e+03        (3768; 55)
+ 17545: mip =   9.500000000e+01 <=   2.050000000e+03        (3873; 57)
+ 18025: mip =   9.500000000e+01 <=   2.041000000e+03        (3978; 58)
+ 18781: mip =   9.500000000e+01 <=   2.031000000e+03        (4078; 61)
+ 19262: mip =   9.500000000e+01 <=   2.021000000e+03        (4226; 62)
+ 19871: mip =   9.500000000e+01 <=   2.013000000e+03        (4320; 64)
+ 20271: mip =   9.500000000e+01 <=   2.012000000e+03        (4425; 65)
+ 20780: mip =   9.500000000e+01 <=   2.010000000e+03        (4501; 67)
+ 21147: mip =   9.500000000e+01 <=   1.997000000e+03        (4581; 68)
Time used: 240.1 secs.  Memory used: 8.8 Mb.
+ 21293: mip =   9.500000000e+01 <=   1.997000000e+03        (4666; 68)
+ 21744: mip =   9.500000000e+01 <=   1.988000000e+03        (4752; 70)
+ 22102: mip =   9.500000000e+01 <=   1.987000000e+03        (4842; 71)
+ 22474: mip =   9.500000000e+01 <=   1.983000000e+03        (4929; 72)
+ 22735: mip =   9.500000000e+01 <=   1.982000000e+03        (5012; 73)
+ 23257: mip =   9.500000000e+01 <=   1.981000000e+03        (5116; 74)
+ 23594: mip =   9.500000000e+01 <=   1.978000000e+03        (5237; 75)
+ 24250: >>>>>   9.700000000e+01 <=   1.958000000e+03        (5337; 77)
+ 25037: mip =   9.700000000e+01 <=   1.947000000e+03        (5462; 109)
+ 25399: mip =   9.700000000e+01 <=   1.933000000e+03        (5548; 110)
+ 25803: mip =   9.700000000e+01 <=   1.930000000e+03        (5656; 111)
+ 26838: mip =   9.700000000e+01 <=   1.913000000e+03        (5881; 115)
+ 27558: mip =   9.700000000e+01 <=   1.894000000e+03        (6032; 117)
Time used: 300.1 secs.  Memory used: 9.9 Mb.
+ 27918: mip =   9.700000000e+01 <=   1.892000000e+03        (6117; 118)
+ 28280: mip =   9.700000000e+01 <=   1.890000000e+03        (6212; 119)
+ 28872: mip =   9.700000000e+01 <=   1.883000000e+03        (6327; 121)
+ 29616: mip =   9.700000000e+01 <=   1.873000000e+03        (6468; 124)
+ 30212: mip =   9.700000000e+01 <=   1.858000000e+03        (6575; 126)
+ 30534: mip =   9.700000000e+01 <=   1.847000000e+03        (6655; 127)
+ 30807: mip =   9.700000000e+01 <=   1.846000000e+03        (6750; 128)
+ 31149: mip =   9.700000000e+01 <=   1.843000000e+03        (6835; 129)
+ 31694: mip =   9.700000000e+01 <=   1.824000000e+03        (6927; 131)
+ 32229: mip =   9.700000000e+01 <=   1.821000000e+03        (7018; 133)
+ 33053: mip =   9.700000000e+01 <=   1.796000000e+03        (7178; 136)
Time used: 360.1 secs.  Memory used: 10.8 Mb.
+ 33683: mip =   9.700000000e+01 <=   1.781000000e+03        (7311; 138)
+ 34589: mip =   9.700000000e+01 <=   1.756000000e+03        (7512; 142)
+ 35249: mip =   9.700000000e+01 <=   1.738000000e+03        (7648; 144)
+ 35570: mip =   9.700000000e+01 <=   1.732000000e+03        (7740; 145)
+ 36016: mip =   9.700000000e+01 <=   1.721000000e+03        (7840; 147)
+ 36615: mip =   9.700000000e+01 <=   1.709000000e+03        (7931; 149)
+ 37104: mip =   9.700000000e+01 <=   1.696000000e+03        (8024; 151)
+ 37462: mip =   9.700000000e+01 <=   1.694000000e+03        (8106; 152)
+ 37904: mip =   9.700000000e+01 <=   1.684000000e+03        (8194; 154)
+ 38169: mip =   9.700000000e+01 <=   1.683000000e+03        (8274; 155)
+ 38480: mip =   9.700000000e+01 <=   1.680000000e+03        (8353; 156)
+ 38972: mip =   9.700000000e+01 <=   1.677000000e+03        (8423; 158)
Time used: 420.1 secs.  Memory used: 11.7 Mb.
+ 39489: mip =   9.700000000e+01 <=   1.675000000e+03        (8517; 160)
+ 39759: mip =   9.700000000e+01 <=   1.673000000e+03        (8575; 161)
+ 40021: mip =   9.700000000e+01 <=   1.670000000e+03        (8636; 162)
+ 40659: mip =   9.700000000e+01 <=   1.666000000e+03        (8736; 165)
+ 41180: mip =   9.700000000e+01 <=   1.665000000e+03        (8819; 167)
+ 41506: mip =   9.700000000e+01 <=   1.662000000e+03        (8890; 168)
+ 41780: mip =   9.700000000e+01 <=   1.662000000e+03        (8972; 169)
+ 42180: >>>>>   1.030000000e+02 <=   1.662000000e+03        (9109; 170)
+ 43102: mip =   1.030000000e+02 <=   1.661000000e+03        (9182; 295)
+ 43582: mip =   1.030000000e+02 <=   1.659000000e+03        (9314; 297)
+ 44172: mip =   1.030000000e+02 <=   1.657000000e+03        (9448; 300)
+ 44525: mip =   1.030000000e+02 <=   1.653000000e+03        (9572; 301)
+ 44982: mip =   1.030000000e+02 <=   1.646000000e+03        (9698; 303)
Time used: 480.2 secs.  Memory used: 12.6 Mb.
+ 45481: mip =   1.030000000e+02 <=   1.639000000e+03        (9821; 305)
+ 46022: mip =   1.030000000e+02 <=   1.638000000e+03        (9955; 307)
+ 46628: mip =   1.030000000e+02 <=   1.635000000e+03        (10089; 310)
+ 47348: mip =   1.030000000e+02 <=   1.633000000e+03        (10216; 313)
+ 47674: mip =   1.030000000e+02 <=   1.632000000e+03        (10339; 314)
+ 48295: mip =   1.030000000e+02 <=   1.626000000e+03        (10459; 316)
+ 49049: mip =   1.030000000e+02 <=   1.623000000e+03        (10568; 320)
+ 49177: mip =   1.030000000e+02 <=   1.623000000e+03        (10656; 320)
+ 49616: mip =   1.030000000e+02 <=   1.622000000e+03        (10772; 322)
+ 49905: mip =   1.030000000e+02 <=   1.621000000e+03        (10883; 323)
+ 50567: mip =   1.030000000e+02 <=   1.614000000e+03        (11008; 326)
+ 50887: mip =   1.030000000e+02 <=   1.613000000e+03        (11117; 327)
Time used: 540.2 secs.  Memory used: 13.8 Mb.
+ 51394: mip =   1.030000000e+02 <=   1.604000000e+03        (11225; 329)
+ 51804: mip =   1.030000000e+02 <=   1.600000000e+03        (11320; 331)
+ 52316: mip =   1.030000000e+02 <=   1.597000000e+03        (11422; 333)
+ 52754: mip =   1.030000000e+02 <=   1.595000000e+03        (11517; 335)
+ 53299: mip =   1.030000000e+02 <=   1.593000000e+03        (11609; 337)
+ 53690: mip =   1.030000000e+02 <=   1.592000000e+03        (11700; 339)
+ 54136: mip =   1.030000000e+02 <=   1.590000000e+03        (11775; 341)
+ 54412: mip =   1.030000000e+02 <=   1.587000000e+03        (11849; 342)
+ 54830: mip =   1.030000000e+02 <=   1.586000000e+03        (11932; 344)
+ 55052: mip =   1.030000000e+02 <=   1.583000000e+03        (12015; 345)
+ 55327: mip =   1.030000000e+02 <=   1.581000000e+03        (12097; 346)
+ 55919: mip =   1.030000000e+02 <=   1.580000000e+03        (12173; 349)
Time used: 600.3 secs.  Memory used: 14.6 Mb.
+ 56187: mip =   1.030000000e+02 <=   1.579000000e+03        (12249; 350)
+ 56680: mip =   1.030000000e+02 <=   1.577000000e+03        (12333; 352)
+ 57103: mip =   1.030000000e+02 <=   1.576000000e+03        (12412; 354)
+ 57439: mip =   1.030000000e+02 <=   1.575000000e+03        (12491; 355)
+ 57645: mip =   1.030000000e+02 <=   1.571000000e+03        (12564; 356)
+ 57879: mip =   1.030000000e+02 <=   1.569000000e+03        (12649; 357)
+ 58189: mip =   1.030000000e+02 <=   1.569000000e+03        (12732; 358)
+ 58415: >>>>>   1.040000000e+02 <=   1.569000000e+03        (12774; 359)
+ 58767: mip =   1.040000000e+02 <=   1.568000000e+03        (12842; 393)
+ 59001: mip =   1.040000000e+02 <=   1.567000000e+03        (12924; 394)
+ 59292: mip =   1.040000000e+02 <=   1.566000000e+03        (13016; 395)
+ 59518: mip =   1.040000000e+02 <=   1.563000000e+03        (13096; 396)
Time used: 660.3 secs.  Memory used: 15.2 Mb.
+ 60027: mip =   1.040000000e+02 <=   1.562000000e+03        (13211; 399)
+ 60428: mip =   1.040000000e+02 <=   1.560000000e+03        (13305; 400)
+ 60700: mip =   1.040000000e+02 <=   1.559000000e+03        (13376; 401)
+ 61289: mip =   1.040000000e+02 <=   1.554000000e+03        (13448; 404)
+ 61570: mip =   1.040000000e+02 <=   1.553000000e+03        (13527; 405)
+ 61795: mip =   1.040000000e+02 <=   1.553000000e+03        (13607; 406)
+ 62014: mip =   1.040000000e+02 <=   1.553000000e+03        (13686; 407)
+ 62252: mip =   1.040000000e+02 <=   1.553000000e+03        (13761; 408)
+ 62463: mip =   1.040000000e+02 <=   1.551000000e+03        (13835; 409)
+ 62895: mip =   1.040000000e+02 <=   1.550000000e+03        (13913; 411)
+ 63356: mip =   1.040000000e+02 <=   1.548000000e+03        (13990; 413)
+ 63598: mip =   1.040000000e+02 <=   1.547000000e+03        (14062; 414)
Time used: 720.3 secs.  Memory used: 15.9 Mb.
+ 64006: mip =   1.040000000e+02 <=   1.545000000e+03        (14154; 416)
+ 64426: mip =   1.040000000e+02 <=   1.545000000e+03        (14230; 418)
+ 64677: mip =   1.040000000e+02 <=   1.545000000e+03        (14300; 419)
+ 65258: mip =   1.040000000e+02 <=   1.543000000e+03        (14378; 422)
+ 65348: mip =   1.040000000e+02 <=   1.543000000e+03        (14436; 422)
+ 65564: mip =   1.040000000e+02 <=   1.542000000e+03        (14516; 423)
+ 65949: mip =   1.040000000e+02 <=   1.541000000e+03        (14593; 425)
+ 66230: mip =   1.040000000e+02 <=   1.539000000e+03        (14678; 426)
+ 66444: mip =   1.040000000e+02 <=   1.537000000e+03        (14756; 427)
+ 66628: mip =   1.040000000e+02 <=   1.536000000e+03        (14832; 428)
+ 66888: mip =   1.040000000e+02 <=   1.536000000e+03        (14911; 429)
+ 67332: mip =   1.040000000e+02 <=   1.533000000e+03        (15004; 431)
Time used: 780.3 secs.  Memory used: 16.5 Mb.
+ 68089: mip =   1.040000000e+02 <=   1.532000000e+03        (15213; 434)
+ 68687: mip =   1.040000000e+02 <=   1.531000000e+03        (15372; 437)
+ 69562: mip =   1.040000000e+02 <=   1.528000000e+03        (15541; 441)
